examples/external_satisfy/factorization.cnf
c PEQNP - www.peqnp.com
c contact@peqnp.science
c pip install PEQNP
p cnf 312 1305
-1 -2 -3 -4 -5 -6 -7 -8 -9 -10 -11 -12 0
-13 -14 -15 -16 -17 -18 -19 -20 -21 -22 -23 -24 0
-1 -13 25 0
13 -25 0
1 -25 0
-1 -14 26 0
14 -26 0
1 -26 0
-1 -15 27 0
15 -27 0
1 -27 0
-1 -16 28 0
16 -28 0
1 -28 0
-1 -17 29 0
17 -29 0
1 -29 0
-1 -18 30 0
18 -30 0
1 -30 0
-1 -19 31 0
19 -31 0
1 -31 0
-1 -20 32 0
20 -32 0
1 -32 0
-1 -21 33 0
21 -33 0
1 -33 0
-1 -22 34 0
22 -34 0
1 -34 0
-1 -23 35 0
23 -35 0
1 -35 0
-1 -24 36 0
24 -36 0
1 -36 0
-2 -13 37 0
13 -37 0
2 -37 0
-2 -14 38 0
14 -38 0
2 -38 0
-2 -15 39 0
15 -39 0
2 -39 0
-2 -16 40 0
16 -40 0
2 -40 0
-2 -17 41 0
17 -41 0
2 -41 0
-2 -18 42 0
18 -42 0
2 -42 0
-2 -19 43 0
19 -43 0
2 -43 0
-2 -20 44 0
20 -44 0
2 -44 0
-2 -21 45 0
21 -45 0
2 -45 0
-2 -22 46 0
22 -46 0
2 -46 0
-2 -23 47 0
23 -47 0
2 -47 0
-2 -24 0
24 -48 0
2 -48 0
-3 -13 49 0
13 -49 0
3 -49 0
-3 -14 50 0
14 -50 0
3 -50 0
-3 -15 51 0
15 -51 0
3 -51 0
-3 -16 52 0
16 -52 0
3 -52 0
-3 -17 53 0
17 -53 0
3 -53 0
-3 -18 54 0
18 -54 0
3 -54 0
-3 -19 55 0
19 -55 0
3 -55 0
-3 -20 56 0
20 -56 0
3 -56 0
-3 -21 57 0
21 -57 0
3 -57 0
-3 -22 58 0
22 -58 0
3 -58 0
-3 -23 0
23 -59 0
3 -59 0
-3 -24 0
24 -60 0
3 -60 0
-4 -13 61 0
13 -61 0
4 -61 0
-4 -14 62 0
14 -62 0
4 -62 0
-4 -15 63 0
15 -63 0
4 -63 0
-4 -16 64 0
16 -64 0
4 -64 0
-4 -17 65 0
17 -65 0
4 -65 0
-4 -18 66 0
18 -66 0
4 -66 0
-4 -19 67 0
19 -67 0
4 -67 0
-4 -20 68 0
20 -68 0
4 -68 0
-4 -21 69 0
21 -69 0
4 -69 0
-4 -22 0
22 -70 0
4 -70 0
-4 -23 0
23 -71 0
4 -71 0
-4 -24 0
24 -72 0
4 -72 0
-5 -13 73 0
13 -73 0
5 -73 0
-5 -14 74 0
14 -74 0
5 -74 0
-5 -15 75 0
15 -75 0
5 -75 0
-5 -16 76 0
16 -76 0
5 -76 0
-5 -17 77 0
17 -77 0
5 -77 0
-5 -18 78 0
18 -78 0
5 -78 0
-5 -19 79 0
19 -79 0
5 -79 0
-5 -20 80 0
20 -80 0
5 -80 0
-5 -21 0
21 -81 0
5 -81 0
-5 -22 0
22 -82 0
5 -82 0
-5 -23 0
23 -83 0
5 -83 0
-5 -24 0
24 -84 0
5 -84 0
-6 -13 85 0
13 -85 0
6 -85 0
-6 -14 86 0
14 -86 0
6 -86 0
-6 -15 87 0
15 -87 0
6 -87 0
-6 -16 88 0
16 -88 0
6 -88 0
-6 -17 89 0
17 -89 0
6 -89 0
-6 -18 90 0
18 -90 0
6 -90 0
-6 -19 91 0
19 -91 0
6 -91 0
-6 -20 0
20 -92 0
6 -92 0
-6 -21 0
21 -93 0
6 -93 0
-6 -22 0
22 -94 0
6 -94 0
-6 -23 0
23 -95 0
6 -95 0
-6 -24 0
24 -96 0
6 -96 0
-7 -13 97 0
13 -97 0
7 -97 0
-7 -14 98 0
14 -98 0
7 -98 0
-7 -15 99 0
15 -99 0
7 -99 0
-7 -16 100 0
16 -100 0
7 -100 0
-7 -17 101 0
17 -101 0
7 -101 0
-7 -18 102 0
18 -102 0
7 -102 0
-7 -19 0
19 -103 0
7 -103 0
-7 -20 0
20 -104 0
7 -104 0
-7 -21 0
21 -105 0
7 -105 0
-7 -22 0
22 -106 0
7 -106 0
-7 -23 0
23 -107 0
7 -107 0
-7 -24 0
24 -108 0
7 -108 0
-8 -13 109 0
13 -109 0
8 -109 0
-8 -14 110 0
14 -110 0
8 -110 0
-8 -15 111 0
15 -111 0
8 -111 0
-8 -16 112 0
16 -112 0
8 -112 0
-8 -17 113 0
17 -113 0
8 -113 0
-8 -18 0
18 -114 0
8 -114 0
-8 -19 0
19 -115 0
8 -115 0
-8 -20 0
20 -116 0
8 -116 0
-8 -21 0
21 -117 0
8 -117 0
-8 -22 0
22 -118 0
8 -118 0
-8 -23 0
23 -119 0
8 -119 0
-8 -24 0
24 -120 0
8 -120 0
-9 -13 121 0
13 -121 0
9 -121 0
-9 -14 122 0
14 -122 0
9 -122 0
-9 -15 123 0
15 -123 0
9 -123 0
-9 -16 124 0
16 -124 0
9 -124 0
-9 -17 0
17 -125 0
9 -125 0
-9 -18 0
18 -126 0
9 -126 0
-9 -19 0
19 -127 0
9 -127 0
-9 -20 0
20 -128 0
9 -128 0
-9 -21 0
21 -129 0
9 -129 0
-9 -22 0
22 -130 0
9 -130 0
-9 -23 0
23 -131 0
9 -131 0
-9 -24 0
24 -132 0
9 -132 0
-10 -13 133 0
13 -133 0
10 -133 0
-10 -14 134 0
14 -134 0
10 -134 0
-10 -15 135 0
15 -135 0
10 -135 0
-10 -16 0
16 -136 0
10 -136 0
-10 -17 0
17 -137 0
10 -137 0
-10 -18 0
18 -138 0
10 -138 0
-10 -19 0
19 -139 0
10 -139 0
-10 -20 0
20 -140 0
10 -140 0
-10 -21 0
21 -141 0
10 -141 0
-10 -22 0
22 -142 0
10 -142 0
-10 -23 0
23 -143 0
10 -143 0
-10 -24 0
24 -144 0
10 -144 0
-11 -13 145 0
13 -145 0
11 -145 0
-11 -14 146 0
14 -146 0
11 -146 0
-11 -15 0
15 -147 0
11 -147 0
-11 -16 0
16 -148 0
11 -148 0
-11 -17 0
17 -149 0
11 -149 0
-11 -18 0
18 -150 0
11 -150 0
-11 -19 0
19 -151 0
11 -151 0
-11 -20 0
20 -152 0
11 -152 0
-11 -21 0
21 -153 0
11 -153 0
-11 -22 0
22 -154 0
11 -154 0
-11 -23 0
23 -155 0
11 -155 0
-11 -24 0
24 -156 0
11 -156 0
-12 -13 157 0
13 -157 0
12 -157 0
-12 -14 0
14 -158 0
12 -158 0
-12 -15 0
15 -159 0
12 -159 0
-12 -16 0
16 -160 0
12 -160 0
-12 -17 0
17 -161 0
12 -161 0
-12 -18 0
18 -162 0
12 -162 0
-12 -19 0
19 -163 0
12 -163 0
-12 -20 0
20 -164 0
12 -164 0
-12 -21 0
21 -165 0
12 -165 0
-12 -22 0
22 -166 0
12 -166 0
-12 -23 0
23 -167 0
12 -167 0
-12 -24 0
24 -168 0
12 -168 0
-169 26 37 0
-169 -26 -37 0
169 26 -37 0
169 -26 37 0
-26 -37 170 0
26 -170 0
37 -170 0
27 38 -171 170 0
27 -38 -171 -170 0
27 -38 171 170 0
27 38 171 -170 0
-27 38 171 170 0
-27 -38 171 -170 0
-27 -38 -171 170 0
-27 38 -171 -170 0
27 38 -172 0
27 170 -172 0
27 -38 -170 172 0
-27 38 170 -172 0
-27 -38 172 0
-27 -170 172 0
28 39 -173 172 0
28 -39 -173 -172 0
28 -39 173 172 0
28 39 173 -172 0
-28 39 173 172 0
-28 -39 173 -172 0
-28 -39 -173 172 0
-28 39 -173 -172 0
28 39 -174 0
28 172 -174 0
28 -39 -172 174 0
-28 39 172 -174 0
-28 -39 174 0
-28 -172 174 0
29 40 -175 174 0
29 -40 -175 -174 0
29 -40 175 174 0
29 40 175 -174 0
-29 40 175 174 0
-29 -40 175 -174 0
-29 -40 -175 174 0
-29 40 -175 -174 0
29 40 -176 0
29 174 -176 0
29 -40 -174 176 0
-29 40 174 -176 0
-29 -40 176 0
-29 -174 176 0
30 41 -177 176 0
30 -41 -177 -176 0
30 -41 177 176 0
30 41 177 -176 0
-30 41 177 176 0
-30 -41 177 -176 0
-30 -41 -177 176 0
-30 41 -177 -176 0
30 41 -178 0
30 176 -178 0
30 -41 -176 178 0
-30 41 176 -178 0
-30 -41 178 0
-30 -176 178 0
31 42 -179 178 0
31 -42 -179 -178 0
31 -42 179 178 0
31 42 179 -178 0
-31 42 179 178 0
-31 -42 179 -178 0
-31 -42 -179 178 0
-31 42 -179 -178 0
31 42 -180 0
31 178 -180 0
31 -42 -178 180 0
-31 42 178 -180 0
-31 -42 180 0
-31 -178 180 0
32 43 -181 180 0
32 -43 -181 -180 0
32 -43 181 180 0
32 43 181 -180 0
-32 43 181 180 0
-32 -43 181 -180 0
-32 -43 -181 180 0
-32 43 -181 -180 0
32 43 -182 0
32 180 -182 0
32 -43 -180 182 0
-32 43 180 -182 0
-32 -43 182 0
-32 -180 182 0
33 44 -183 182 0
33 -44 -183 -182 0
33 -44 183 182 0
33 44 183 -182 0
-33 44 183 182 0
-33 -44 183 -182 0
-33 -44 -183 182 0
-33 44 -183 -182 0
33 44 -184 0
33 182 -184 0
33 -44 -182 184 0
-33 44 182 -184 0
-33 -44 184 0
-33 -182 184 0
34 45 -185 184 0
34 -45 -185 -184 0
34 -45 185 184 0
34 45 185 -184 0
-34 45 185 184 0
-34 -45 185 -184 0
-34 -45 -185 184 0
-34 45 -185 -184 0
34 45 -186 0
34 184 -186 0
34 -45 -184 186 0
-34 45 184 -186 0
-34 -45 186 0
-34 -184 186 0
35 46 -187 186 0
35 -46 -187 -186 0
35 -46 187 186 0
35 46 187 -186 0
-35 46 187 186 0
-35 -46 187 -186 0
-35 -46 -187 186 0
-35 46 -187 -186 0
35 46 -188 0
35 186 -188 0
35 -46 -186 188 0
-35 46 186 -188 0
-35 -46 188 0
-35 -186 188 0
36 47 -189 188 0
36 -47 -189 -188 0
36 -47 189 188 0
36 47 189 -188 0
-36 47 189 188 0
-36 -47 189 -188 0
-36 -47 -189 188 0
-36 47 -189 -188 0
36 47 -190 0
36 -190 188 0
36 -47 -188 0
-36 47 -190 188 0
-36 -47 0
-36 -188 0
-191 49 171 0
-191 -49 -171 0
191 -49 171 0
191 49 -171 0
-49 -171 192 0
171 -192 0
49 -192 0
50 173 -193 192 0
-50 173 -193 -192 0
-50 173 193 192 0
50 173 193 -192 0
50 -173 193 192 0
-50 -173 193 -192 0
-50 -173 -193 192 0
50 -173 -193 -192 0
50 173 -194 0
173 192 -194 0
-50 173 -192 194 0
50 -173 192 -194 0
-50 -173 194 0
-173 -192 194 0
51 175 -195 194 0
-51 175 -195 -194 0
-51 175 195 194 0
51 175 195 -194 0
51 -175 195 194 0
-51 -175 195 -194 0
-51 -175 -195 194 0
51 -175 -195 -194 0
51 175 -196 0
175 194 -196 0
-51 175 -194 196 0
51 -175 194 -196 0
-51 -175 196 0
-175 -194 196 0
52 177 -197 196 0
-52 177 -197 -196 0
-52 177 197 196 0
52 177 197 -196 0
52 -177 197 196 0
-52 -177 197 -196 0
-52 -177 -197 196 0
52 -177 -197 -196 0
52 177 -198 0
177 196 -198 0
-52 177 -196 198 0
52 -177 196 -198 0
-52 -177 198 0
-177 -196 198 0
53 179 -199 198 0
-53 179 -199 -198 0
-53 179 199 198 0
53 179 199 -198 0
53 -179 199 198 0
-53 -179 199 -198 0
-53 -179 -199 198 0
53 -179 -199 -198 0
53 179 -200 0
179 198 -200 0
-53 179 -198 200 0
53 -179 198 -200 0
-53 -179 200 0
-179 -198 200 0
54 181 -201 200 0
-54 181 -201 -200 0
-54 181 201 200 0
54 181 201 -200 0
54 -181 201 200 0
-54 -181 201 -200 0
-54 -181 -201 200 0
54 -181 -201 -200 0
54 181 -202 0
181 200 -202 0
-54 181 -200 202 0
54 -181 200 -202 0
-54 -181 202 0
-181 -200 202 0
55 183 -203 202 0
-55 183 -203 -202 0
-55 183 203 202 0
55 183 203 -202 0
55 -183 203 202 0
-55 -183 203 -202 0
-55 -183 -203 202 0
55 -183 -203 -202 0
55 183 -204 0
183 202 -204 0
-55 183 -202 204 0
55 -183 202 -204 0
-55 -183 204 0
-183 -202 204 0
56 185 -205 204 0
-56 185 -205 -204 0
-56 185 205 204 0
56 185 205 -204 0
56 -185 205 204 0
-56 -185 205 -204 0
-56 -185 -205 204 0
56 -185 -205 -204 0
56 185 -206 0
185 204 -206 0
-56 185 -204 206 0
56 -185 204 -206 0
-56 -185 206 0
-185 -204 206 0
57 187 -207 206 0
-57 187 -207 -206 0
-57 187 207 206 0
57 187 207 -206 0
57 -187 207 206 0
-57 -187 207 -206 0
-57 -187 -207 206 0
57 -187 -207 -206 0
57 187 -208 0
187 206 -208 0
-57 187 -206 208 0
57 -187 206 -208 0
-57 -187 208 0
-187 -206 208 0
58 189 -209 208 0
-58 189 -209 -208 0
-58 189 209 208 0
58 189 209 -208 0
58 -189 209 208 0
-58 -189 209 -208 0
-58 -189 -209 208 0
58 -189 -209 -208 0
58 189 -210 0
189 -210 208 0
-58 189 -208 0
58 -189 -210 208 0
-58 -189 0
-189 -208 0
-211 61 193 0
-211 -61 -193 0
211 -61 193 0
211 61 -193 0
-61 -193 212 0
193 -212 0
61 -212 0
62 195 -213 212 0
-62 195 -213 -212 0
-62 195 213 212 0
62 195 213 -212 0
62 -195 213 212 0
-62 -195 213 -212 0
-62 -195 -213 212 0
62 -195 -213 -212 0
62 195 -214 0
195 212 -214 0
-62 195 -212 214 0
62 -195 212 -214 0
-62 -195 214 0
-195 -212 214 0
63 197 -215 214 0
-63 197 -215 -214 0
-63 197 215 214 0
63 197 215 -214 0
63 -197 215 214 0
-63 -197 215 -214 0
-63 -197 -215 214 0
63 -197 -215 -214 0
63 197 -216 0
197 214 -216 0
-63 197 -214 216 0
63 -197 214 -216 0
-63 -197 216 0
-197 -214 216 0
64 199 -217 216 0
-64 199 -217 -216 0
-64 199 217 216 0
64 199 217 -216 0
64 -199 217 216 0
-64 -199 217 -216 0
-64 -199 -217 216 0
64 -199 -217 -216 0
64 199 -218 0
199 216 -218 0
-64 199 -216 218 0
64 -199 216 -218 0
-64 -199 218 0
-199 -216 218 0
65 201 -219 218 0
-65 201 -219 -218 0
-65 201 219 218 0
65 201 219 -218 0
65 -201 219 218 0
-65 -201 219 -218 0
-65 -201 -219 218 0
65 -201 -219 -218 0
65 201 -220 0
201 218 -220 0
-65 201 -218 220 0
65 -201 218 -220 0
-65 -201 220 0
-201 -218 220 0
66 203 -221 220 0
-66 203 -221 -220 0
-66 203 221 220 0
66 203 221 -220 0
66 -203 221 220 0
-66 -203 221 -220 0
-66 -203 -221 220 0
66 -203 -221 -220 0
66 203 -222 0
203 220 -222 0
-66 203 -220 222 0
66 -203 220 -222 0
-66 -203 222 0
-203 -220 222 0
67 205 -223 222 0
-67 205 -223 -222 0
-67 205 223 222 0
67 205 223 -222 0
67 -205 223 222 0
-67 -205 223 -222 0
-67 -205 -223 222 0
67 -205 -223 -222 0
67 205 -224 0
205 222 -224 0
-67 205 -222 224 0
67 -205 222 -224 0
-67 -205 224 0
-205 -222 224 0
68 207 -225 224 0
-68 207 -225 -224 0
-68 207 225 224 0
68 207 225 -224 0
68 -207 225 224 0
-68 -207 225 -224 0
-68 -207 -225 224 0
68 -207 -225 -224 0
68 207 -226 0
207 224 -226 0
-68 207 -224 226 0
68 -207 224 -226 0
-68 -207 226 0
-207 -224 226 0
69 209 -227 226 0
-69 209 -227 -226 0
-69 209 227 226 0
69 209 227 -226 0
69 -209 227 226 0
-69 -209 227 -226 0
-69 -209 -227 226 0
69 -209 -227 -226 0
69 209 -228 0
209 -228 226 0
-69 209 -226 0
69 -209 -228 226 0
-69 -209 0
-209 -226 0
-229 73 213 0
-229 -73 -213 0
229 -73 213 0
229 73 -213 0
-73 -213 230 0
213 -230 0
73 -230 0
74 215 -231 230 0
-74 215 -231 -230 0
-74 215 231 230 0
74 215 231 -230 0
74 -215 231 230 0
-74 -215 231 -230 0
-74 -215 -231 230 0
74 -215 -231 -230 0
74 215 -232 0
215 230 -232 0
-74 215 -230 232 0
74 -215 230 -232 0
-74 -215 232 0
-215 -230 232 0
75 217 -233 232 0
-75 217 -233 -232 0
-75 217 233 232 0
75 217 233 -232 0
75 -217 233 232 0
-75 -217 233 -232 0
-75 -217 -233 232 0
75 -217 -233 -232 0
75 217 -234 0
217 232 -234 0
-75 217 -232 234 0
75 -217 232 -234 0
-75 -217 234 0
-217 -232 234 0
76 219 -235 234 0
-76 219 -235 -234 0
-76 219 235 234 0
76 219 235 -234 0
76 -219 235 234 0
-76 -219 235 -234 0
-76 -219 -235 234 0
76 -219 -235 -234 0
76 219 -236 0
219 234 -236 0
-76 219 -234 236 0
76 -219 234 -236 0
-76 -219 236 0
-219 -234 236 0
77 221 -237 236 0
-77 221 -237 -236 0
-77 221 237 236 0
77 221 237 -236 0
77 -221 237 236 0
-77 -221 237 -236 0
-77 -221 -237 236 0
77 -221 -237 -236 0
77 221 -238 0
221 236 -238 0
-77 221 -236 238 0
77 -221 236 -238 0
-77 -221 238 0
-221 -236 238 0
78 223 -239 238 0
-78 223 -239 -238 0
-78 223 239 238 0
78 223 239 -238 0
78 -223 239 238 0
-78 -223 239 -238 0
-78 -223 -239 238 0
78 -223 -239 -238 0
78 223 -240 0
223 238 -240 0
-78 223 -238 240 0
78 -223 238 -240 0
-78 -223 240 0
-223 -238 240 0
79 225 -241 240 0
-79 225 -241 -240 0
-79 225 241 240 0
79 225 241 -240 0
79 -225 241 240 0
-79 -225 241 -240 0
-79 -225 -241 240 0
79 -225 -241 -240 0
79 225 -242 0
225 240 -242 0
-79 225 -240 242 0
79 -225 240 -242 0
-79 -225 242 0
-225 -240 242 0
80 227 -243 242 0
-80 227 -243 -242 0
-80 227 243 242 0
80 227 243 -242 0
80 -227 243 242 0
-80 -227 243 -242 0
-80 -227 -243 242 0
80 -227 -243 -242 0
80 227 -244 0
227 -244 242 0
-80 227 -242 0
80 -227 -244 242 0
-80 -227 0
-227 -242 0
-245 85 231 0
-245 -85 -231 0
245 -85 231 0
245 85 -231 0
-85 -231 246 0
231 -246 0
85 -246 0
86 233 -247 246 0
-86 233 -247 -246 0
-86 233 247 246 0
86 233 247 -246 0
86 -233 247 246 0
-86 -233 247 -246 0
-86 -233 -247 246 0
86 -233 -247 -246 0
86 233 -248 0
233 246 -248 0
-86 233 -246 248 0
86 -233 246 -248 0
-86 -233 248 0
-233 -246 248 0
87 235 -249 248 0
-87 235 -249 -248 0
-87 235 249 248 0
87 235 249 -248 0
87 -235 249 248 0
-87 -235 249 -248 0
-87 -235 -249 248 0
87 -235 -249 -248 0
87 235 -250 0
235 248 -250 0
-87 235 -248 250 0
87 -235 248 -250 0
-87 -235 250 0
-235 -248 250 0
88 237 -251 250 0
-88 237 -251 -250 0
-88 237 251 250 0
88 237 251 -250 0
88 -237 251 250 0
-88 -237 251 -250 0
-88 -237 -251 250 0
88 -237 -251 -250 0
88 237 -252 0
237 250 -252 0
-88 237 -250 252 0
88 -237 250 -252 0
-88 -237 252 0
-237 -250 252 0
89 239 -253 252 0
-89 239 -253 -252 0
-89 239 253 252 0
89 239 253 -252 0
89 -239 253 252 0
-89 -239 253 -252 0
-89 -239 -253 252 0
89 -239 -253 -252 0
89 239 -254 0
239 252 -254 0
-89 239 -252 254 0
89 -239 252 -254 0
-89 -239 254 0
-239 -252 254 0
90 241 -255 254 0
-90 241 -255 -254 0
-90 241 255 254 0
90 241 255 -254 0
90 -241 255 254 0
-90 -241 255 -254 0
-90 -241 -255 254 0
90 -241 -255 -254 0
90 241 -256 0
241 254 -256 0
-90 241 -254 256 0
90 -241 254 -256 0
-90 -241 256 0
-241 -254 256 0
91 243 -257 256 0
-91 243 -257 -256 0
-91 243 257 256 0
91 243 257 -256 0
91 -243 257 256 0
-91 -243 257 -256 0
-91 -243 -257 256 0
91 -243 -257 -256 0
91 243 -258 0
243 -258 256 0
-91 243 -256 0
91 -243 -258 256 0
-91 -243 0
-243 -256 0
-259 97 247 0
-259 -97 -247 0
259 -97 247 0
259 97 -247 0
-97 -247 260 0
247 -260 0
97 -260 0
98 249 -261 260 0
-98 249 -261 -260 0
-98 249 261 260 0
98 249 261 -260 0
98 -249 261 260 0
-98 -249 261 -260 0
-98 -249 -261 260 0
98 -249 -261 -260 0
98 249 -262 0
249 260 -262 0
-98 249 -260 262 0
98 -249 260 -262 0
-98 -249 262 0
-249 -260 262 0
99 251 -263 262 0
-99 251 -263 -262 0
-99 251 263 262 0
99 251 263 -262 0
99 -251 263 262 0
-99 -251 263 -262 0
-99 -251 -263 262 0
99 -251 -263 -262 0
99 251 -264 0
251 262 -264 0
-99 251 -262 264 0
99 -251 262 -264 0
-99 -251 264 0
-251 -262 264 0
100 253 -265 264 0
-100 253 -265 -264 0
-100 253 265 264 0
100 253 265 -264 0
100 -253 265 264 0
-100 -253 265 -264 0
-100 -253 -265 264 0
100 -253 -265 -264 0
100 253 -266 0
253 264 -266 0
-100 253 -264 266 0
100 -253 264 -266 0
-100 -253 266 0
-253 -264 266 0
101 255 -267 266 0
-101 255 -267 -266 0
-101 255 267 266 0
101 255 267 -266 0
101 -255 267 266 0
-101 -255 267 -266 0
-101 -255 -267 266 0
101 -255 -267 -266 0
101 255 -268 0
255 266 -268 0
-101 255 -266 268 0
101 -255 266 -268 0
-101 -255 268 0
-255 -266 268 0
102 257 -269 268 0
-102 257 -269 -268 0
-102 257 269 268 0
102 257 269 -268 0
102 -257 269 268 0
-102 -257 269 -268 0
-102 -257 -269 268 0
102 -257 -269 -268 0
102 257 -270 0
257 -270 268 0
-102 257 -268 0
102 -257 -270 268 0
-102 -257 0
-257 -268 0
-271 109 261 0
-271 -109 -261 0
271 -109 261 0
271 109 -261 0
-109 -261 272 0
261 -272 0
109 -272 0
110 263 -273 272 0
-110 263 -273 -272 0
-110 263 273 272 0
110 263 273 -272 0
110 -263 273 272 0
-110 -263 273 -272 0
-110 -263 -273 272 0
110 -263 -273 -272 0
110 263 -274 0
263 272 -274 0
-110 263 -272 274 0
110 -263 272 -274 0
-110 -263 274 0
-263 -272 274 0
111 265 -275 274 0
-111 265 -275 -274 0
-111 265 275 274 0
111 265 275 -274 0
111 -265 275 274 0
-111 -265 275 -274 0
-111 -265 -275 274 0
111 -265 -275 -274 0
111 265 -276 0
265 274 -276 0
-111 265 -274 276 0
111 -265 274 -276 0
-111 -265 276 0
-265 -274 276 0
112 267 -277 276 0
-112 267 -277 -276 0
-112 267 277 276 0
112 267 277 -276 0
112 -267 277 276 0
-112 -267 277 -276 0
-112 -267 -277 276 0
112 -267 -277 -276 0
112 267 -278 0
267 276 -278 0
-112 267 -276 278 0
112 -267 276 -278 0
-112 -267 278 0
-267 -276 278 0
113 269 -279 278 0
-113 269 -279 -278 0
-113 269 279 278 0
113 269 279 -278 0
113 -269 279 278 0
-113 -269 279 -278 0
-113 -269 -279 278 0
113 -269 -279 -278 0
113 269 -280 0
269 -280 278 0
-113 269 -278 0
113 -269 -280 278 0
-113 -269 0
-269 -278 0
-281 121 273 0
-281 -121 -273 0
281 -121 273 0
281 121 -273 0
-121 -273 282 0
273 -282 0
121 -282 0
122 275 -283 282 0
-122 275 -283 -282 0
-122 275 283 282 0
122 275 283 -282 0
122 -275 283 282 0
-122 -275 283 -282 0
-122 -275 -283 282 0
122 -275 -283 -282 0
122 275 -284 0
275 282 -284 0
-122 275 -282 284 0
122 -275 282 -284 0
-122 -275 284 0
-275 -282 284 0
123 277 -285 284 0
-123 277 -285 -284 0
-123 277 285 284 0
123 277 285 -284 0
123 -277 285 284 0
-123 -277 285 -284 0
-123 -277 -285 284 0
123 -277 -285 -284 0
123 277 -286 0
277 284 -286 0
-123 277 -284 286 0
123 -277 284 -286 0
-123 -277 286 0
-277 -284 286 0
124 279 -287 286 0
-124 279 -287 -286 0
-124 279 287 286 0
124 279 287 -286 0
124 -279 287 286 0
-124 -279 287 -286 0
-124 -279 -287 286 0
124 -279 -287 -286 0
124 279 -288 0
279 -288 286 0
-124 279 -286 0
124 -279 -288 286 0
-124 -279 0
-279 -286 0
-289 133 283 0
-289 -133 -283 0
289 -133 283 0
289 133 -283 0
-133 -283 290 0
283 -290 0
133 -290 0
134 285 -291 290 0
-134 285 -291 -290 0
-134 285 291 290 0
134 285 291 -290 0
134 -285 291 290 0
-134 -285 291 -290 0
-134 -285 -291 290 0
134 -285 -291 -290 0
134 285 -292 0
285 290 -292 0
-134 285 -290 292 0
134 -285 290 -292 0
-134 -285 292 0
-285 -290 292 0
135 287 -293 292 0
-135 287 -293 -292 0
-135 287 293 292 0
135 287 293 -292 0
135 -287 293 292 0
-135 -287 293 -292 0
-135 -287 -293 292 0
135 -287 -293 -292 0
135 287 -294 0
287 -294 292 0
-135 287 -292 0
135 -287 -294 292 0
-135 -287 0
-287 -292 0
-295 145 291 0
-295 -145 -291 0
295 -145 291 0
295 145 -291 0
-145 -291 296 0
291 -296 0
145 -296 0
146 293 -297 296 0
-146 293 -297 -296 0
-146 293 297 296 0
146 293 297 -296 0
146 -293 297 296 0
-146 -293 297 -296 0
-146 -293 -297 296 0
146 -293 -297 -296 0
146 293 -298 0
293 -298 296 0
-146 293 -296 0
146 -293 -298 296 0
-146 -293 0
-293 -296 0
-299 157 297 0
-299 -157 -297 0
299 -157 297 0
299 157 -297 0
-157 -297 0
297 -300 0
157 -300 0
-25 -301 0
25 0
-169 -302 0
169 0
-191 -303 0
191 0
-211 -304 0
211 0
-229 -305 0
229 0
-245 -306 0
245 0
259 -307 0
-259 0
-271 -308 0
271 0
-281 -309 0
281 0
-289 -310 0
289 0
295 -311 0
-295 0
-299 -312 0
299 0
c {'p': [1, 2, 3, 4, 5, 6, 7, 8, 9, 10, 11, 12], 'q': [13, 14, 15, 16, 17, 18, 19, 20, 21, 22, 23, 24]}
-1 -2 -3 -4 -5 -6 7 -8 -9 -10 11 -12 -13 14 15 16 17 18 19 20 21 22 23 24 -25 26 27 28 29 30 31 32 33 34 35 36 -37 38 39 40 41 42 43 44 45 46 47 48 -49 50 51 52 53 54 55 56 57 58 59 60 -61 62 63 64 65 66 67 68 69 70 71 72 -73 74 75 76 77 78 79 80 81 82 83 84 -85 86 87 88 89 90 91 92 93 94 95 96 97 98 99 100 101 102 103 104 105 106 107 108 -109 110 111 112 113 114 115 116 117 118 119 120 -121 122 123 124 125 126 127 128 129 130 131 132 -133 134 135 136 137 138 139 140 141 142 143 144 145 146 147 148 149 150 151 152 153 154 155 156 -157 158 159 160 161 162 163 164 165 166 167 168 -169 170 171 172 173 174 175 176 177 178 179 180 181 182 183 184 185 186 187 188 189 190 -191 192 193 194 195 196 197 198 199 200 201 202 203 204 205 206 207 208 209 210 -211 212 213 214 215 216 217 218 219 220 221 222 223 224 225 226 227 228 -229 230 231 232 233 234 235 236 237 238 239 240 241 242 243 244 -245 246 247 248 249 250 251 252 253 254 255 256 257 258 259 260 261 262 263 264 265 266 267 268 269 270 -271 272 273 274 275 276 277 278 279 280 -281 282 283 284 285 286 287 288 -289 290 291 292 293 294 295 296 297 298 -299 300 301 302 303 304 305 306 307 308 309 310 311 312 0
-1 2 3 4 5 6 7 8 9 10 11 12 -13 -14 -15 -16 -17 -18 19 -20 -21 -22 23 -24 -25 -26 -27 -28 -29 -30 31 -32 -33 -34 35 -36 37 38 39 40 41 42 43 44 45 46 47 48 49 50 51 52 53 54 55 56 57 58 59 60 61 62 63 64 65 66 67 68 69 70 71 72 73 74 75 76 77 78 79 80 81 82 83 84 85 86 87 88 89 90 91 92 93 94 95 96 97 98 99 100 101 102 103 104 105 106 107 108 109 110 111 112 113 114 115 116 117 118 119 120 121 122 123 124 125 126 127 128 129 130 131 132 133 134 135 136 137 138 139 140 141 142 143 144 145 146 147 148 149 150 151 152 153 154 155 156 157 158 159 160 161 162 163 164 165 166 167 168 -169 170 -171 172 -173 174 -175 176 -177 178 179 180 -181 182 -183 184 -185 186 187 188 -189 190 -191 192 -193 194 -195 196 -197 198 199 200 -201 202 -203 204 -205 206 207 208 -209 210 -211 212 -213 214 -215 216 217 218 -219 220 -221 222 -223 224 225 226 -227 228 -229 230 -231 232 233 234 -235 236 -237 238 -239 240 241 242 -243 244 -245 246 247 248 -249 250 -251 252 -253 254 255 256 -257 258 259 260 -261 262 -263 264 -265 266 267 268 -269 270 -271 272 -273 274 -275 276 277 278 -279 280 -281 282 -283 284 285 286 -287 288 -289 290 291 292 -293 294 295 296 -297 298 -299 300 301 302 303 304 305 306 307 308 309 310 311 312 0
-1 -2 -3 -4 -5 6 7 8 9 10 11 12 -13 14 15 16 17 -18 -19 20 21 22 23 24 -25 26 27 28 29 -30 -31 32 33 34 35 36 -37 38 39 40 41 -42 -43 44 45 46 47 48 -49 50 51 52 53 -54 -55 56 57 58 59 60 -61 62 63 64 65 -66 -67 68 69 70 71 72 -73 74 75 76 77 -78 -79 80 81 82 83 84 85 86 87 88 89 90 91 92 93 94 95 96 97 98 99 100 101 102 103 104 105 106 107 108 109 110 111 112 113 114 115 116 117 118 119 120 121 122 123 124 125 126 127 128 129 130 131 132 133 134 135 136 137 138 139 140 141 142 143 144 145 146 147 148 149 150 151 152 153 154 155 156 157 158 159 160 161 162 163 164 165 166 167 168 -169 170 171 172 173 174 175 176 -177 178 179 -180 181 -182 -183 184 185 186 187 188 189 190 -191 192 193 194 195 196 -197 198 199 200 -201 202 203 -204 -205 206 207 208 209 210 -211 212 213 214 -215 216 217 218 -219 220 -221 222 223 -224 -225 226 227 228 -229 230 -231 232 233 234 -235 236 -237 238 -239 240 241 -242 -243 244 -245 246 247 248 -249 250 -251 252 -253 254 255 256 -257 258 259 260 -261 262 -263 264 -265 266 267 268 -269 270 -271 272 -273 274 -275 276 277 278 -279 280 -281 282 -283 284 285 286 -287 288 -289 290 291 292 -293 294 295 296 -297 298 -299 300 301 302 303 304 305 306 307 308 309 310 311 312 0
-1 2 3 4 5 -6 -7 8 9 10 11 12 -13 -14 -15 -16 -17 18 19 20 21 22 23 24 -25 -26 -27 -28 -29 30 31 32 33 34 35 36 37 38 39 40 41 42 43 44 45 46 47 48 49 50 51 52 53 54 55 56 57 58 59 60 61 62 63 64 65 66 67 68 69 70 71 72 73 74 75 76 77 78 79 80 81 82 83 84 -85 -86 -87 -88 -89 90 91 92 93 94 95 96 -97 -98 -99 -100 -101 102 103 104 105 106 107 108 109 110 111 112 113 114 115 116 117 118 119 120 121 122 123 124 125 126 127 128 129 130 131 132 133 134 135 136 137 138 139 140 141 142 143 144 145 146 147 148 149 150 151 152 153 154 155 156 157 158 159 160 161 162 163 164 165 166 167 168 -169 170 -171 172 -173 174 -175 176 177 178 179 180 181 182 183 184 185 186 187 188 189 190 -191 192 -193 194 -195 196 197 198 199 200 201 202 203 204 205 206 207 208 209 210 -211 212 -213 214 215 216 217 218 219 220 221 222 223 224 225 226 227 228 -229 230 231 232 233 234 235 236 237 238 239 240 241 242 243 244 -245 246 -247 248 -249 250 -251 252 -253 254 255 256 257 258 259 -260 -261 -262 -263 -264 -265 -266 267 -268 -269 270 -271 272 -273 274 -275 276 277 278 -279 280 -281 282 -283 284 285 286 -287 288 -289 290 291 292 -293 294 295 296 -297 298 -299 300 301 302 303 304 305 306 307 308 309 310 311 312 0
